8,2
7,3
6,3,1
3,3,2,2
5,4,1
4,4,2
8,2
7,3
6,3,1
3,3,2,2
5,4,1
4,4,2
8,2
7,3
6,3,1
3,3,2,2
5,4,1
4,4,2
8,2
7,3
6,3,1
3,3,2,2
5,4,1
4,4,2
9,1
8,1,1
6,2,2
3,3,2,2
5,1,1,3
4,4,1,1
2,2,2,2,2
5,5
3,3,3,1
1,1,1,1,1,1,1,1,1,1
1,2,3,4
9,1
8,1,1
6,2,2
3,3,2,2
5,1,1,3
4,4,1,1
2,2,2,2,2
5,5
3,3,3,1
1,1,1,1,1,1,1,1,1,1
1,2,3,4
9,1
8,1,1
6,2,2
3,3,2,2
5,1,1,3
4,4,1,1
2,2,2,2,2
5,5
3,3,3,1
1,1,1,1,1,1,1,1,1,1
1,2,3,4
9,1
8,1,1
6,2,2
3,3,2,2
5,1,1,3
4,4,1,1
2,2,2,2,2
5,5
3,3,3,1
1,1,1,1,1,1,1,1,1,1
1,2,3,4
8,2
7,3
6,3,1
3,3,2,2
5,4,1
4,4,2
8,2
7,3
6,3,1
3,3,2,2
5,4,1
4,4,2
8,2
7,3
6,3,1
3,3,2,2
5,4,1
4,4,2
8,2
7,3
6,3,1
3,3,2,2
5,4,1
4,4,2
8,2
7,3
6,3,1
3,3,2,2
5,4,1
4,4,2
8,2
7,3
6,3,1
3,3,2,2
5,4,1
4,4,2
8,2
7,3
6,3,1
3,3,2,2
5,4,1
4,4,2
8,2
7,3
6,3,1
3,3,2,2
5,4,1
4,4,2
